c 
c G(k,n,p) graph
c graph gen seed     : 329084
c number of vertices : 50
c max number of edges: 625
c number of classes  : 2
c edge density       : 0.100000
c edge probability   : 0.200000
c data structure     : sparse
c
c           Graph Stats
c number of vertices  : 50
c nonisolated vertices: 50
c number of edges     : 120
c edge density        : 0.097959
c max degree          : 9
c avg degree          : 4.80
c min degree          : 1
p col 50 120
e 1 45
e 1 40
e 1 29
e 1 28
e 2 12
e 3 50
e 3 46
e 3 24
e 3 5
e 4 30
e 4 28
e 4 10
e 4 7
e 5 40
e 5 33
e 5 30
e 5 29
e 5 16
e 5 10
e 6 41
e 6 29
e 6 22
e 7 49
e 7 21
e 7 14
e 8 47
e 8 42
e 8 41
e 8 30
e 8 10
e 9 36
e 9 33
e 9 32
e 9 28
e 9 27
e 9 16
e 9 11
e 10 46
e 10 43
e 10 21
e 11 46
e 11 37
e 11 24
e 11 23
e 11 21
e 11 14
e 12 43
e 12 24
e 12 23
e 12 21
e 12 19
e 13 45
e 13 31
e 13 29
e 14 40
e 14 28
e 14 27
e 14 26
e 15 29
e 15 22
e 16 50
e 16 44
e 16 43
e 16 23
e 17 47
e 17 45
e 17 30
e 17 27
e 17 22
e 18 36
e 18 26
e 19 42
e 20 32
e 20 29
e 20 28
e 21 47
e 21 36
e 21 32
e 22 43
e 22 38
e 22 25
e 23 42
e 24 45
e 24 42
e 24 41
e 25 47
e 25 45
e 25 33
e 26 50
e 26 44
e 26 38
e 26 35
e 28 46
e 29 50
e 30 49
e 30 46
e 30 44
e 30 34
e 31 44
e 31 34
e 32 44
e 33 43
e 34 45
e 34 41
e 34 40
e 34 36
e 35 42
e 35 41
e 35 40
e 36 50
e 36 48
e 36 46
e 37 42
e 37 39
e 39 50
e 41 44
e 43 45
e 44 45
e 45 48
e 47 48